# Solution for model r5_t36_m8_5 Batch Number: 4
# Finished Task: 35 / 36
# Makespan: 569.0, Total Distance: 686.0, Total Time: 4.7820
# R O S F Batch
0 0 15 0.0 0.0 -1
1 1 16 0.0 0.0 -1
2 2 31 0.0 0.0 -1
3 3 10 0.0 0.0 -1
4 4 12 0.0 0.0 -1
5 1 30 323.0 349.0 0
6 4 27 508.0 530.0 3
7 2 28 471.0 502.0 2
8 3 24 464.0 484.0 3
9 2 23 191.0 229.0 0
10 3 8 397.0 436.0 0
11 1 -1 521.0 558.0 3
12 4 32 27.0 62.0 0
13 2 38 63.0 91.0 0
14 2 7 419.0 457.0 2
15 0 39 269.0 293.0 0
16 1 40 141.0 171.0 0
17 1 19 223.0 248.0 0
18 1 11 437.0 460.0 2
19 1 5 275.0 302.0 0
20 0 21 467.0 506.0 2
21 0 -1 530.0 569.0 3
22 4 37 351.0 390.0 2
23 2 34 241.0 279.0 0
24 3 -1 510.0 536.0 3
25 4 36 259.0 280.0 0
26 2 9 157.0 177.0 0
27 4 -1 548.0 569.0 3
28 2 -1 538.0 569.0 3
29 -1 -1 -1.0 -1.0 0
30 1 18 366.0 399.0 2
31 2 13 27.0 47.0 0
32 4 25 220.0 259.0 0
33 0 20 410.0 436.0 1
34 2 35 294.0 333.0 2
35 2 14 387.0 408.0 2
36 4 22 321.0 351.0 0
37 4 6 427.0 460.0 3
38 2 26 106.0 144.0 0
39 0 33 306.0 330.0 0
40 1 17 179.0 214.0 0
